n_res = 4;
rc = [ 23, 25, 25, 20 ];
n_tasks = 30;
d = [ 8, 8, 5, 2, 6, 10, 8, 6, 5, 3, 6, 7, 3, 10, 10, 10, 3, 1, 5, 9, 7, 2, 5, 7, 8, 9, 8, 9, 1, 6 ];
rr = [| 23, 23, 23, 23, 23, 23, 23, 23, 23, 23, 23, 23, 23, 23, 23, 23, 23, 23, 23, 23, 23, 23, 23, 23, 23, 23, 23, 23, 23, 23
      | 25, 25, 25, 25, 25, 25, 25, 25, 25, 25, 25, 25, 25, 25, 25, 25, 25, 25, 25, 25, 25, 25, 25, 25, 25, 25, 25, 25, 25, 25
      | 25, 25, 25, 25, 25, 25, 25, 25, 25, 25, 25, 25, 25, 25, 25, 25, 25, 25, 25, 25, 25, 25, 25, 25, 25, 25, 25, 25, 25, 25
      | 20, 20, 20, 20, 20, 20, 20, 20, 20, 20, 20, 20, 20, 20, 20, 20, 20, 20, 20, 20, 20, 20, 20, 20, 20, 20, 20, 20, 20, 20|];
suc = [ { 7, 20, 28 },
       { 4, 5, 19 },
       { 7, 8, 17 },
       { 6 },
       { 12, 13 },
       { 9, 15 },
       { 11, 24, 25 },
       { 10 },
       { 11, 14, 16 },
       { 18, 23 },
       { 27 },
       { 14, 18, 26 },
       { 14, 23, 26 },
       { 20, 27 },
       { 18, 22 },
       { 21 },
       { 19, 23 },
       { 20 },
       { 22, 30 },
       { 24, 25, 30 },
       { 22, 26, 28 },
       { 29 },
       { 28 },
       { 29 },
       { 29 },
       { 27 },
       { 30 },
       {  },
       {  },
       {  } ];
